proyfinal/src/viki/013/experimentInOfficeAgust.take6.output/7d55a16e-9bc8-4a43-a2bb-0a094f1cf49b.als.dat
{'cnf.clauses': '118081',
 'cnf.totvars': '69608',
 'conflict literals': '13',
 'conflicts': '10',
 'decisions': '8144',
 'memused.mb': '14.79',
 'outcome': 'UNSAT',
 'propagations': '36439',
 'restarts': '1',
 'solver.msecs': 32,
 'task.msecs': 100}
