proyfinal/src/viki/013/experimentInOfficeAgust.take6.output/7d55a16e-9bc8-4a43-a2bb-0a094f1cf49b.als.out
Reading from standard input... Use '--help' for help.
============================[ Problem Statistics ]=============================
|                                                                             |
|  Number of variables:         69608                                         |
|  Number of clauses:          118081                                         |
|  Parse time:                   0.02 s                                       |
|                                                                             |
============================[ Search Statistics ]==============================
| Conflicts |          ORIGINAL         |          LEARNT          | Progress |
|           |    Vars  Clauses Literals |    Limit  Clauses Lit/Cl |          |
===============================================================================
===============================================================================
restarts              : 1
conflicts             : 10             (311 /sec)
decisions             : 8144           (0.00 % random) (252872 /sec)
propagations          : 36439          (1131435 /sec)
conflict literals     : 13             (0.00 % deleted)
Memory used           : 14.79 MB
CPU time              : 0.032206 s

UNSATISFIABLE
